{"OBJ_VAL": 279, "status": "optimal", "Name": "scp59", "time": "N/A", "X": [0, 1, 2, 3, 5, 6, 7, 8, 11, 12, 15, 16, 17, 18, 20, 21, 23, 25, 27, 28, 29, 32, 37, 41, 42, 43, 47, 51, 52, 65, 68, 73, 78, 83, 86, 90, 93, 100, 102, 107, 108, 111, 112, 119, 138, 141, 144, 149, 156, 163, 178, 202, 206, 212, 231, 256, 259, 299], "Pi": [3.0, -0.0, -0.0, 14.0, -0.0, -0.0, -0.0, 2.0, -0.0, 2.0, 2.0, -0.0, 2.0, 0.5, 1.0, 3.0, -0.0, 2.0, -0.0, 4.0, 1.0, 2.0, -0.0, -0.0, -0.0, -0.0, 1.0, -0.0, 2.0, 5.0, -0.0, 0.5, 6.0, -0.0, -0.0, 1.0, 4.0, -0.0, -0.0, -0.0, -0.0, -0.0, -0.0, 4.0, -0.0, 4.0, -0.0, -0.0, -0.0, -0.0, 8.0, -0.0, 0.0, -0.0, 1.0, -0.0, 7.0, -0.0, -0.0, -0.0, 3.0, -0.0, -0.0, -0.0, 6.0, -0.0, 9.0, -0.0, -0.0, 5.5, -0.0, -0.0, -0.0, -0.0, 3.0, -0.0, -0.0, 0.5, -0.0, 1.0, -0.0, 0.5, -0.0, 2.0, -0.0, 0.5, -0.0, -0.0, 0.0, -0.0, -0.0, -0.0, -0.0, -0.0, 5.0, 12.0, -0.0, 6.0, -0.0, -0.0, 5.5, 1.0, -0.0, -0.0, -0.0, 2.0, -0.0, -0.0, 4.0, -0.0, 1.5, 1.0, -0.0, 7.5, 1.5, -0.0, 2.5, 8.0, 3.0, 7.5, -0.0, 0.5, 6.5, -0.0, -0.0, -0.0, -0.0, -0.0, 4.5, 4.0, -0.0, -0.0, 3.5, -0.0, 0.5, 1.0, 2.0, 7.0, -0.0, -0.0, 2.0, -0.0, 3.0, -0.0, -0.0, -0.0, -0.0, -0.0, -0.0, 2.0, 2.0, 5.0, -0.0, -0.0, -0.0, 0.0, -0.0, 5.0, -0.0, -0.0, 3.0, 1.0, 1.0, -0.0, -0.0, 2.0, -0.0, -0.0, 2.0, 1.5, -0.0, -0.0, 3.0, 1.0, -0.0, -0.0, 1.0, 6.0, 0.5, 1.0, -0.0, -0.0, -0.0, 1.0, 0.0, -0.0, 12.0, 3.0, -0.0, -0.0, -0.0, 6.0, -0.0, -0.0, 2.0, 5.0, 4.0, -0.0, -0.0, 1.0], "Dj": [0.0, 0.0, 0.0, 0.0, 0.0, 0.0, 0.0, 0.0, 0.0, 0.0, 0.0, 0.0, -4.0, 0.0, 1.0, 0.0, 0.0, 0.0, 0.0, 0.0, 0.0, 0.0, 0.0, 0.0, 2.0, 0.0, 0.0, 0.0, 0.0, 0.0, 0.0, 1.0, 0.0, 2.0, 2.0, 0.0, 2.0, 0.0, 2.0, 2.0, 2.0, 0.0, 0.0, 0.0, 0.0, 0.0, 0.0, 0.0, 3.0, 2.5, 0.5, 0.0, 0.0, 3.0, 2.0, 1.0, 3.0, 2.0, 2.0, 1.0, 0.5, 0.0, 1.5, 3.0, 0.0, 0.0, 1.0, 2.0, 0.0, 4.0, 3.5, 0.0, 4.0, -1.0, 0.0, 4.0, 2.0, 2.0, 0.0, 4.0, 4.0, 1.0, 3.0, 0.0, 0.0, 4.0, 0.0, 0.0, 3.0, 2.0, 0.0, 0.0, 3.0, 0.0, 2.0, 5.0, 3.0, 0.0, 3.0, 5.0, 0.0, 0.0, 0.0, 0.0, 2.5, 3.5, 0.0, 0.0, 0.0, 0.0, 6.0, 0.0, 0.0, 4.0, 5.0, 5.0, 6.0, 6.0, 0.5, 0.0, 2.0, 4.0, 7.0, 7.0, 0.0, 1.5, 5.5, 6.0, 4.0, 5.5, 2.0, 7.0, 1.0, 0.0, 7.0, 3.0, 7.5, 1.0, 0.0, 0.5, 4.5, 0.0, 0.0, 2.5, 0.0, 8.0, 2.0, 2.0, 7.0, 0.0, 8.0, 8.0, 0.0, 8.0, 8.0, 3.0, 0.0, 7.0, 7.5, 7.0, 8.0, 8.0, 0.5, 0.0, 9.0, 4.0, 2.5, 9.0, 7.5, 3.0, 3.0, 4.5, 7.0, 8.5, 7.0, 3.5, 7.0, 8.5, 0.0, 0.5, 3.0, 0.0, 4.5, 5.5, 0.5, 7.0, 6.0, 9.0, 8.0, 5.0, 7.0, 6.0, 7.5, 10.0, 6.5, 10.0, 10.0, 10.0, 10.0, 10.0, 10.0, 5.0, 0.0, 0.0, 7.5, 3.0, -2.5, 0.0, 1.5, 10.0, 8.5, 9.0, 0.0, 4.0, 9.5, 8.0, 5.0, 10.5, 11.0, 5.5, 8.0, 11.0, 12.0, 9.0, 8.0, 5.0, 9.5, 4.0, 0.5, 12.0, 8.0, 0.0, 7.0, 4.5, 2.0, 12.0, 7.5, 9.0, 12.0, 1.5, 5.5, 7.0, 1.5, 8.5, 2.0, 12.0, 6.0, 9.0, 8.0, 6.0, 13.0, 7.0, 12.0, 11.5, 13.0, 4.5, 0.0, 11.5, 4.5, 0.0, 11.5, 11.5, 9.5, 1.5, 7.0, 9.0, 9.0, 7.0, 11.0, 8.0, 0.0, 12.0, 14.0, 14.0, 13.0, 10.0, 6.0, 1.0, 1.0, 3.0, 8.5, 15.0, 10.0, 13.0, 6.0, 3.0, 6.0, 15.0, 10.0, 15.0, 13.5, 6.0, 14.0, 12.0, 10.0, 6.5, 8.0, 5.5, 7.0, 0.0, 15.0, 7.5, 11.5, 14.0, 1.0, 13.5, 16.0, 10.0, 14.0, 13.0, 13.0, 15.0, 13.0, 15.0, 16.0, 3.5, 9.5, 8.0, 8.5, 17.0, 12.0, 3.0, 10.5, 17.0, 17.0, 10.0, 8.5, 5.5, 17.0, 0.0, 6.0, 5.5, 14.0, 17.0, 15.0, 1.0, 16.0, 10.5, 11.0, 16.0, 14.0, 6.5, 15.0, 18.0, 8.5, 13.5, 9.5, 2.0, 18.0, 18.0, 18.0, 6.0, 4.5, 17.0, 13.0, 16.0, 15.0, 18.0, 10.5, 0.0, 0.0, 14.5, 15.0, 15.0, 17.0, 11.0, 18.0, 18.0, 17.0, 15.0, 15.0, 19.0, 18.0, 18.5, 15.0, 19.0, 7.0, 0.0, 12.5, 7.0, 20.0, 13.5, 8.0, 11.0, 14.5, 5.0, 15.0, 16.0, 12.5, 20.0, 10.0, 17.0, 13.5, 20.0, 19.5, 16.0, 13.5, 3.0, 16.0, 20.0, 20.0, 15.5, 10.0, 18.0, 19.0, 3.5, 19.0, 21.0, 18.0, 21.0, 20.0, 20.5, 13.0, 0.0, 7.5, 20.0, 18.0, 15.0, 17.5, 17.5, 20.0, 21.0, 14.0, 20.0, 21.5, 21.0, 22.0, 4.0, 22.5, 20.5, 23.0, 11.0, 19.0, 16.0, 10.0, 20.0, 23.0, 18.0, 18.0, 16.0, 21.0, 21.0, 20.5, 17.5, 21.0, 17.5, 20.0, 22.0, 23.0, 14.0, 22.0, 11.0, 19.0, 23.0, 22.0, 14.5, 23.0, 9.0, 23.0, 23.0, 18.0, 22.0, 8.0, 11.5, 18.0, 20.5, 16.0, 20.5, 3.5, 16.5, 23.0, 23.5, 15.0, 23.5, 22.0, 21.0, 23.5, 24.0, 20.0, 7.0, 18.0, 17.0, 24.0, 15.5, 14.0, 13.0, 25.0, 18.0, 11.5, 22.5, 20.0, 15.5, 18.0, 25.0, 15.0, 25.0, 25.0, 25.0, 24.0, 23.0, 24.0, 23.0, 25.0, 23.0, 25.0, 20.0, 16.5, 0.0, 20.5, 10.0, 14.5, 23.0, 22.0, 24.0, 23.0, 21.0, 16.0, 21.0, 24.0, 18.5, 19.0, 26.0, 26.0, 23.0, 0.0, 20.0, 26.0, 23.0, 21.0, 13.5, 13.5, 12.0, 13.0, 23.0, 24.0, 20.0, 21.0, 18.0, 17.0, 25.0, 17.0, 20.5, 25.0, 15.0, 19.5, 27.0, 26.0, 12.0, 27.0, 27.0, 27.0, 16.0, 19.0, 27.0, 17.5, 20.0, 18.5, 26.0, 13.0, 22.0, 14.0, 27.0, 21.0, 26.0, 24.0, 26.0, 23.5, 21.5, 28.0, 22.5, 20.5, 26.0, 28.0, 19.0, 7.0, 14.5, 17.0, 24.0, 28.5, 21.0, 27.0, 12.5, 19.0, 19.0, 20.0, 29.0, 21.0, 21.5, 27.5, 16.0, 29.0, 25.5, 20.0, 18.0, 25.5, 26.5, 21.0, 22.5, 6.0, 23.0, 24.0, 20.0, 20.5, 28.0, 30.0, 26.0, 24.0, 30.0, 1.5, 26.0, 20.0, 30.0, 20.0, 29.5, 31.0, 28.5, 31.0, 19.0, 29.0, 31.0, 25.0, 24.5, 28.0, 29.0, 26.0, 24.0, 17.0, 28.5, 26.0, 26.0, 32.0, 28.0, 30.0, 24.0, 32.0, 31.5, 31.5, 8.5, 31.0, 23.0, 33.0, 29.0, 27.0, 33.0, 32.0, 28.0, 32.0, 33.0, 22.0, 27.5, 26.0, 33.0, 33.0, 33.0, 16.5, 22.0, 31.5, 11.0, 28.0, 25.5, 20.0, 31.5, 33.0, 32.0, 24.0, 34.0, 34.0, 27.5, 30.0, 31.0, 34.0, 34.0, 24.0, 27.0, 28.5, 35.0, 27.0, 24.0, 17.0, 21.5, 35.0, 32.0, 32.5, 35.0, 32.0, 10.5, 33.5, 33.0, 29.0, 23.5, 34.5, 32.5, 31.0, 28.0, 32.5, 34.5, 34.0, 36.0, 34.0, 25.0, 32.5, 21.0, 34.0, 36.0, 26.0, 31.0, 33.0, 30.5, 32.0, 32.0, 24.0, 32.5, 37.0, 32.0, 37.0, 36.0, 33.0, 35.0, 37.0, 34.0, 33.0, 23.0, 35.5, 17.5, 32.5, 34.5, 38.0, 32.0, 36.0, 36.0, 36.0, 30.0, 32.0, 30.5, 33.5, 38.0, 38.0, 38.0, 35.0, 20.0, 32.0, 33.0, 24.5, 36.5, 37.0, 26.0, 39.0, 39.0, 38.0, 39.0, 37.0, 39.0, 37.0, 39.0, 39.0, 27.0, 28.0, 28.0, 19.5, 35.0, 31.0, 38.0, 35.5, 40.0, 32.0, 33.5, 20.0, 29.0, 36.5, 39.0, 22.0, 39.0, 37.5, 36.0, 38.5, 39.5, 37.5, 40.0, 40.0, 30.0, 40.0, 23.5, 41.0, 41.0, 38.0, 41.0, 39.0, 31.0, 32.0, 30.5, 41.0, 40.0, 39.0, 33.5, 28.5, 39.5, 29.0, 36.0, 36.0, 40.5, 32.5, 39.0, 39.0, 41.0, 41.0, 41.0, 41.0, 37.5, 39.0, 30.0, 25.0, 24.5, 37.5, 41.0, 30.0, 40.0, 34.0, 42.0, 38.0, 41.5, 40.0, 42.0, 40.0, 41.5, 39.0, 40.5, 42.0, 39.0, 42.0, 23.0, 27.0, 29.0, 42.0, 33.0, 41.0, 39.0, 30.5, 38.5, 35.0, 41.5, 42.5, 40.0, 43.0, 43.0, 40.0, 37.5, 38.0, 36.5, 43.0, 17.0, 39.0, 40.0, 33.5, 40.5, 32.5, 37.0, 43.5, 34.5, 38.5, 37.0, 35.0, 44.0, 44.0, 41.5, 36.5, 43.0, 44.0, 42.0, 32.0, 38.5, 42.0, 42.5, 39.5, 42.5, 22.0, 43.0, 37.0, 34.0, 44.0, 45.0, 40.0, 38.5, 38.0, 31.5, 45.0, 41.5, 42.0, 43.5, 42.5, 41.0, 42.0, 40.5, 44.0, 32.0, 43.5, 27.5, 43.0, 46.0, 40.5, 37.5, 44.0, 44.5, 33.5, 46.0, 37.0, 24.0, 41.5, 43.5, 45.5, 42.0, 34.5, 46.0, 25.0, 44.0, 42.0, 41.0, 33.0, 39.0, 33.0, 38.0, 42.0, 45.5, 39.5, 47.0, 42.0, 38.5, 40.5, 44.5, 45.0, 47.5, 42.0, 33.5, 39.5, 46.0, 43.5, 45.0, 25.0, 44.0, 44.0, 30.0, 43.0, 45.0, 36.0, 48.0, 36.0, 49.0, 33.0, 45.5, 45.5, 42.0, 33.0, 46.0, 49.0, 42.0, 43.0, 42.0, 37.0, 44.0, 48.0, 47.5, 39.5, 37.0, 48.5, 42.0, 43.5, 49.0, 49.0, 43.0, 49.0, 45.0, 49.0, 49.0, 30.0, 47.0, 41.5, 37.0, 46.5, 48.0, 37.0, 45.0, 46.0, 49.0, 50.0, 40.0, 50.0, 51.0, 46.5, 38.0, 37.0, 43.5, 45.5, 46.5, 48.0, 51.0, 41.0, 50.0, 46.0, 43.5, 45.5, 46.0, 49.0, 48.5, 47.0, 51.0, 34.0, 37.5, 47.0, 48.0, 51.0, 44.5, 52.0, 51.5, 50.0, 50.0, 41.5, 48.0, 51.0, 44.5, 52.0, 52.0, 46.0, 48.5, 52.0, 51.0, 50.0, 37.0, 44.0, 51.0, 46.0, 44.0, 46.5, 47.0, 52.0, 43.0, 48.0, 49.5, 48.0, 51.0, 37.5, 53.0, 46.0, 45.5, 46.5, 40.0, 52.0, 38.0, 49.5, 41.0, 53.0, 53.0, 53.0, 53.0, 52.0, 35.5, 51.0, 51.5, 51.0, 45.0, 53.5, 52.0, 53.5, 40.5, 46.5, 54.0, 54.0, 53.0, 52.5, 51.5, 44.5, 42.0, 50.5, 51.0, 49.5, 50.0, 47.0, 55.0, 41.0, 49.0, 51.5, 55.0, 52.0, 45.5, 38.5, 40.5, 50.0, 53.0, 54.0, 50.0, 45.5, 45.5, 53.0, 55.0, 55.0, 53.0, 54.5, 50.0, 39.0, 56.0, 40.5, 42.0, 43.5, 48.5, 53.0, 50.0, 53.5, 50.0, 52.0, 56.0, 52.0, 44.0, 46.0, 45.0, 48.0, 52.0, 56.0, 44.0, 43.5, 39.5, 49.0, 50.0, 56.0, 52.0, 49.0, 57.0, 55.0, 51.5, 51.0, 49.5, 53.0, 57.0, 51.0, 50.5, 47.0, 44.0, 47.0, 56.0, 56.0, 58.0, 57.0, 51.0, 56.0, 58.0, 58.0, 57.5, 54.5, 58.0, 57.0, 52.0, 46.0, 47.0, 52.5, 49.0, 52.0, 59.0, 59.0, 59.0, 55.0, 49.5, 43.0, 52.0, 59.0, 59.0, 56.0, 58.0, 59.0, 53.0, 59.0, 58.0, 59.0, 59.0, 56.0, 48.5, 50.5, 52.0, 59.0, 44.5, 49.5, 45.5, 57.0, 57.0, 55.0, 56.0, 51.0, 47.0, 57.5, 57.0, 57.5, 60.0, 41.0, 52.0, 57.5, 52.5, 60.5, 37.5, 58.0, 56.0, 57.0, 54.0, 43.5, 49.0, 55.0, 48.0, 37.5, 58.0, 55.0, 50.5, 54.0, 55.0, 55.5, 54.0, 55.0, 56.0, 53.0, 61.0, 61.0, 54.5, 59.0, 60.0, 44.5, 40.0, 60.5, 59.5, 61.5, 54.0, 61.0, 62.0, 55.5, 55.0, 51.5, 62.0, 56.0, 60.0, 60.5, 62.0, 60.0, 62.0, 55.5, 60.0, 62.0, 61.0, 56.0, 60.5, 54.0, 47.0, 55.5, 52.0, 56.5, 59.0, 54.0, 63.0, 51.0, 60.0, 53.0, 55.0, 62.0, 63.0, 63.0, 53.5, 51.5, 61.0, 59.0, 55.0, 64.0, 59.5, 57.0, 56.5, 57.5, 54.5, 63.0, 59.0, 57.0, 58.0, 59.5, 56.0, 56.0, 63.0, 60.0, 64.0, 64.0, 63.0, 63.0, 51.5, 61.0, 60.0, 56.5, 59.0, 64.5, 64.5, 60.5, 63.0, 59.0, 61.0, 63.0, 64.0, 65.0, 65.0, 65.0, 64.0, 63.0, 49.0, 63.5, 58.5, 56.5, 57.5, 62.0, 61.0, 61.0, 64.5, 66.0, 59.0, 59.0, 53.5, 66.0, 62.0, 64.0, 62.0, 66.0, 64.0, 66.0, 49.0, 60.0, 57.5, 61.0, 61.5, 61.5, 67.0, 56.5, 67.0, 60.0, 64.0, 57.5, 62.0, 67.0, 63.5, 67.0, 67.0, 67.0, 56.0, 61.0, 50.0, 68.0, 65.0, 63.5, 65.5, 66.0, 64.0, 68.0, 67.0, 68.0, 51.0, 66.5, 60.0, 66.0, 61.0, 47.5, 64.0, 63.5, 64.0, 55.5, 64.0, 68.5, 61.5, 64.0, 68.0, 69.0, 61.0, 67.0, 69.0, 63.5, 68.5, 59.5, 68.0, 69.0, 65.5, 64.5, 66.0, 70.0, 65.0, 70.0, 70.0, 65.0, 70.0, 62.5, 63.0, 68.0, 54.0, 71.0, 69.0, 66.5, 70.5, 66.0, 69.0, 62.5, 67.0, 70.5, 71.0, 71.0, 71.0, 71.0, 55.0, 70.5, 57.5, 61.0, 71.5, 64.0, 56.0, 58.0, 64.0, 58.0, 72.0, 48.0, 68.0, 66.0, 72.0, 72.0, 68.0, 71.5, 59.0, 70.5, 71.5, 66.0, 67.0, 72.0, 72.0, 72.0, 72.0, 59.0, 60.5, 52.5, 66.5, 70.0, 65.5, 68.0, 70.0, 68.0, 73.0, 62.5, 70.0, 69.0, 71.0, 68.0, 73.0, 71.5, 67.0, 70.5, 74.0, 72.0, 71.5, 65.0, 74.0, 71.0, 63.0, 66.5, 74.0, 65.0, 71.0, 62.5, 73.0, 74.0, 70.0, 62.0, 74.0, 74.0, 71.0, 70.0, 67.0, 74.0, 63.0, 60.0, 57.5, 58.5, 72.5, 67.0, 57.0, 71.0, 67.0, 73.0, 52.0, 71.5, 66.0, 67.0, 70.0, 57.0, 74.0, 75.0, 67.5, 75.0, 63.0, 68.0, 72.0, 66.0, 67.5, 74.5, 63.5, 66.0, 74.0, 57.0, 70.0, 74.0, 65.0, 71.0, 53.5, 72.0, 70.5, 67.0, 72.0, 71.0, 58.0, 76.0, 75.0, 76.0, 71.0, 74.0, 75.5, 75.0, 75.0, 75.5, 74.5, 73.0, 48.5, 70.5, 71.0, 71.0, 72.5, 69.0, 72.0, 75.0, 66.0, 74.0, 74.5, 74.0, 75.5, 72.0, 77.0, 77.0, 72.5, 63.0, 75.0, 68.5, 76.0, 77.0, 58.0, 74.0, 72.0, 77.0, 78.0, 73.0, 78.0, 75.0, 76.0, 78.0, 78.0, 71.0, 76.0, 72.0, 71.0, 78.0, 72.0, 78.0, 78.0, 72.5, 77.0, 76.0, 72.0, 73.0, 66.5, 74.5, 79.0, 79.0, 74.0, 64.0, 74.5, 67.0, 69.5, 78.5, 73.0, 77.0, 70.5, 72.5, 79.0, 77.0, 57.0, 71.0, 73.0, 72.0, 65.0, 79.5, 80.0, 77.0, 78.0, 73.0, 80.0, 74.5, 78.0, 69.0, 79.0, 76.0, 80.0, 80.0, 76.0, 78.0, 74.5, 68.0, 79.0, 80.0, 80.0, 69.0, 76.0, 63.5, 71.5, 75.0, 81.0, 66.5, 77.0, 76.0, 75.5, 63.5, 78.5, 77.0, 72.0, 76.0, 77.5, 74.5, 76.0, 77.5, 77.0, 76.0, 81.0, 73.0, 79.0, 76.0, 81.0, 66.0, 74.5, 73.5, 82.0, 80.5, 74.0, 72.0, 76.0, 67.0, 79.0, 82.0, 79.0, 74.5, 77.0, 68.0, 80.0, 78.0, 65.0, 71.0, 77.5, 80.0, 65.0, 75.0, 77.5, 71.0, 82.5, 78.0, 74.0, 83.0, 78.5, 83.0, 79.5, 80.0, 83.0, 81.0, 83.0, 83.0, 83.0, 77.0, 82.0, 83.0, 79.0, 83.0, 69.5, 71.5, 78.0, 80.0, 71.5, 80.0, 80.0, 83.0, 69.0, 80.0, 79.5, 67.0, 74.0, 78.0, 76.5, 83.0, 76.0, 84.0, 70.0, 73.0, 83.0, 80.0, 73.0, 82.5, 84.5, 82.5, 83.0, 71.5, 77.0, 73.0, 83.0, 76.0, 85.0, 85.0, 82.0, 85.0, 75.0, 72.5, 79.0, 79.0, 79.5, 76.0, 74.0, 84.5, 84.5, 83.0, 74.5, 84.0, 79.0, 73.0, 78.0, 81.0, 80.0, 86.0, 82.0, 73.0, 68.5, 81.0, 66.0, 75.5, 77.5, 84.0, 85.0, 71.5, 81.0, 81.0, 83.5, 73.0, 78.0, 83.0, 87.0, 77.0, 80.0, 85.0, 77.0, 85.5, 87.0, 87.0, 86.0, 86.0, 75.0, 86.5, 79.5, 84.5, 85.0, 80.5, 80.0, 74.5, 84.5, 82.0, 78.0, 83.0, 79.5, 86.0, 88.0, 70.5, 83.0, 83.0, 56.0, 73.5, 83.0, 85.0, 89.0, 81.5, 86.0, 87.5, 81.0, 77.0, 79.5, 86.0, 89.0, 89.0, 85.0, 86.0, 81.0, 87.5, 77.0, 88.0, 85.0, 83.0, 87.5, 88.5, 76.0, 88.5, 75.5, 90.0, 81.0, 90.0, 82.5, 68.0, 84.0, 87.0, 90.0, 78.0, 90.0, 89.0, 90.0, 81.0, 81.5, 78.0, 82.5, 91.0, 91.0, 89.5, 86.0, 90.0, 91.0, 92.0, 81.0, 87.0, 87.0, 82.0, 81.0, 90.0, 87.0, 86.5, 92.0, 90.0, 92.0, 89.0, 82.5, 91.0, 92.0, 92.0, 86.0, 91.5, 89.0, 92.0, 89.0, 92.0, 88.0, 85.0, 82.0, 92.5, 92.0, 79.0, 82.0, 88.5, 86.0, 82.5, 87.0, 88.0, 90.0, 91.0, 88.0, 93.0, 89.0, 88.0, 88.0, 93.0, 89.5, 85.5, 87.5, 86.5, 85.5, 85.5, 94.0, 86.5, 89.0, 85.0, 94.0, 92.0, 94.0, 94.0, 94.0, 94.0, 93.5, 86.0, 94.0, 90.0, 66.0, 85.5, 91.5, 85.0, 88.0, 91.0, 91.0, 87.5, 79.0, 95.0, 88.5, 85.0, 92.0, 95.0, 95.0, 80.5, 84.0, 93.5, 95.0, 94.5, 94.0, 93.5, 83.5, 91.5, 88.5, 94.5, 94.0, 96.0, 90.0, 88.0, 91.0, 94.0, 78.5, 64.5, 93.0, 85.0, 92.5, 83.0, 93.0, 92.0, 87.0, 75.5, 94.5, 93.0, 94.5, 97.0, 91.0, 89.0, 83.0, 94.0, 97.0, 97.0, 96.0, 96.0, 97.0, 87.0, 91.5, 83.5, 90.0, 90.0, 91.5, 92.0, 89.5, 92.0, 90.0, 96.0, 83.0, 98.0, 98.0, 98.0, 98.0, 96.0, 96.5, 88.0, 81.0, 87.0, 97.5, 90.0, 98.0, 96.5, 92.0, 90.5, 97.0, 98.0, 95.0, 90.0, 91.5, 90.0, 95.0, 99.0, 93.0, 90.0, 89.0, 88.5, 94.0, 98.0, 97.5, 92.5, 91.0, 88.0, 100.0, 99.0, 100.0, 86.5, 97.0, 94.5, 98.0, 94.0, 99.0, 92.0, 97.0, 92.5, 100.0, 100.0, 100.0], "slack": [0.0, -1.0, -4.0, 0.0, -3.0, -1.0, -1.0, 0.0, 0.0, 0.0, 0.0, 0.0, 0.0, 0.0, 0.0, 0.0, -1.0, 0.0, -1.0, 0.0, 0.0, 0.0, -1.0, 0.0, 0.0, 0.0, 0.0, 0.0, 0.0, 0.0, -2.0, 0.0, 0.0, 0.0, -1.0, 0.0, 0.0, -1.0, -1.0, -1.0, -1.0, -1.0, 0.0, 0.0, 0.0, 0.0, 0.0, 0.0, 0.0, -2.0, 0.0, 0.0, 0.0, -1.0, 0.0, 0.0, 0.0, 0.0, -2.0, -1.0, 0.0, 0.0, -2.0, 0.0, 0.0, 0.0, 0.0, -1.0, 0.0, 0.0, -1.0, 0.0, -1.0, 0.0, 0.0, 0.0, 0.0, 0.0, -1.0, 0.0, -1.0, 0.0, 0.0, 0.0, -1.0, 0.0, -2.0, 0.0, 0.0, -1.0, 0.0, -2.0, -1.0, -1.0, 0.0, 0.0, -1.0, 0.0, 0.0, -1.0, 0.0, 0.0, -1.0, -3.0, -1.0, 0.0, -1.0, -1.0, 0.0, -1.0, 0.0, 0.0, 0.0, 0.0, 0.0, 0.0, 0.0, 0.0, 0.0, 0.0, -1.0, 0.0, 0.0, 0.0, -2.0, -1.0, 0.0, -1.0, 0.0, 0.0, -1.0, -1.0, 0.0, 0.0, 0.0, 0.0, 0.0, 0.0, -1.0, -2.0, 0.0, 0.0, 0.0, 0.0, 0.0, 0.0, -2.0, -1.0, -1.0, 0.0, 0.0, 0.0, -1.0, 0.0, -1.0, 0.0, -2.0, 0.0, -1.0, 0.0, 0.0, 0.0, 0.0, 0.0, -1.0, 0.0, 0.0, -2.0, 0.0, 0.0, 0.0, -4.0, 0.0, 0.0, -2.0, 0.0, 0.0, 0.0, 0.0, 0.0, -2.0, 0.0, 0.0, 0.0, 0.0, -1.0, 0.0, 0.0, 0.0, -1.0, -1.0, 0.0, -1.0, -2.0, 0.0, 0.0, 0.0, -1.0, -2.0, 0.0], "density": 0.0196775, "feasible": true, "X_len": 58, "mode": "AAD", "factor": 0, "obj_val": 279.0, "x": [1.0, 1.0, 1.0, 1.0, 0.0, 1.0, 1.0, 1.0, 1.0, 0.0, 0.0, 1.0, 1.0, 0.0, 0.0, 1.0, 1.0, 1.0, 1.0, 0.0, 1.0, 1.0, 0.0, 1.0, 0.0, 1.0, 0.0, 1.0, 1.0, 1.0, 0.0, 0.0, 1.0, 0.0, 0.0, 0.0, 0.0, 1.0, 0.0, 0.0, 0.0, 1.0, 1.0, 1.0, 0.0, 0.0, 0.0, 1.0, 0.0, 0.0, 0.0, 1.0, 1.0, 0.0, 0.0, 0.0, 0.0, 0.0, 0.0, 0.0, 0.0, 0.0, 0.0, 0.0, 0.0, 1.0, 0.0, 0.0, 1.0, 0.0, 0.0, 0.0, 0.0, 1.0, 0.0, 0.0, 0.0, 0.0, 1.0, 0.0, 0.0, 0.0, 0.0, 1.0, 0.0, 0.0, 1.0, 0.0, 0.0, 0.0, 1.0, 0.0, 0.0, 1.0, 0.0, 0.0, 0.0, 0.0, 0.0, 0.0, 1.0, 0.0, 1.0, 0.0, 0.0, 0.0, 0.0, 1.0, 1.0, 0.0, 0.0, 1.0, 1.0, 0.0, 0.0, 0.0, 0.0, 0.0, 0.0, 1.0, 0.0, 0.0, 0.0, 0.0, 0.0, 0.0, 0.0, 0.0, 0.0, 0.0, 0.0, 0.0, 0.0, 0.0, 0.0, 0.0, 0.0, 0.0, 1.0, 0.0, 0.0, 1.0, 0.0, 0.0, 1.0, 0.0, 0.0, 0.0, 0.0, 1.0, 0.0, 0.0, 0.0, 0.0, 0.0, 0.0, 1.0, 0.0, 0.0, 0.0, 0.0, 0.0, 0.0, 1.0, 0.0, 0.0, 0.0, 0.0, 0.0, 0.0, 0.0, 0.0, 0.0, 0.0, 0.0, 0.0, 0.0, 0.0, 1.0, 0.0, 0.0, 0.0, 0.0, 0.0, 0.0, 0.0, 0.0, 0.0, 0.0, 0.0, 0.0, 0.0, 0.0, 0.0, 0.0, 0.0, 0.0, 0.0, 0.0, 0.0, 0.0, 0.0, 1.0, 0.0, 0.0, 0.0, 1.0, 0.0, 0.0, 0.0, 0.0, 0.0, 1.0, 0.0, 0.0, 0.0, 0.0, 0.0, 0.0, 0.0, 0.0, 0.0, 0.0, 0.0, 0.0, 0.0, 0.0, 0.0, 0.0, 0.0, 0.0, 1.0, 0.0, 0.0, 0.0, 0.0, 0.0, 0.0, 0.0, 0.0, 0.0, 0.0, 0.0, 0.0, 0.0, 0.0, 0.0, 0.0, 0.0, 0.0, 0.0, 0.0, 0.0, 0.0, 0.0, 0.0, 1.0, 0.0, 0.0, 1.0, 0.0, 0.0, 0.0, 0.0, 0.0, 0.0, 0.0, 0.0, 0.0, 0.0, 0.0, 0.0, 0.0, 0.0, 0.0, 0.0, 0.0, 0.0, 0.0, 0.0, 0.0, 0.0, 0.0, 0.0, 0.0, 0.0, 0.0, 0.0, 0.0, 0.0, 0.0, 0.0, 0.0, 0.0, 0.0, 0.0, 0.0, 0.0, 0.0, 1.0, 0.0, 0.0, 0.0, 0.0, 0.0, 0.0, 0.0, 0.0, 0.0, 0.0, 0.0, 0.0, 0.0, 0.0, 0.0, 0.0, 0.0, 0.0, 0.0, 0.0, 0.0, 0.0, 0.0, 0.0, 0.0, 0.0, 0.0, 0.0, 0.0, 0.0, 0.0, 0.0, 0.0, 0.0, 0.0, 0.0, 0.0, 0.0, 0.0, 0.0, 0.0, 0.0, 0.0, 0.0, 0.0, 0.0, 0.0, 0.0, 0.0, 0.0, 0.0, 0.0, 0.0, 0.0, 0.0, 0.0, 0.0, 0.0, 0.0, 0.0, 0.0, 0.0, 0.0, 0.0, 0.0, 0.0, 0.0, 0.0, 0.0, 0.0, 0.0, 0.0, 0.0, 0.0, 0.0, 0.0, 0.0, 0.0, 0.0, 0.0, 0.0, 0.0, 0.0, 0.0, 0.0, 0.0, 0.0, 0.0, 0.0, 0.0, 0.0, 0.0, 0.0, 0.0, 0.0, 0.0, 0.0, 0.0, 0.0, 0.0, 0.0, 0.0, 0.0, 0.0, 0.0, 0.0, 0.0, 0.0, 0.0, 0.0, 0.0, 0.0, 0.0, 0.0, 0.0, 0.0, 0.0, 0.0, 0.0, 0.0, 0.0, 0.0, 0.0, 0.0, 0.0, 0.0, 0.0, 0.0, 0.0, 0.0, 0.0, 0.0, 0.0, 0.0, 0.0, 0.0, 0.0, 0.0, 0.0, 0.0, 0.0, 0.0, 0.0, 0.0, 0.0, 0.0, 0.0, 0.0, 0.0, 0.0, 0.0, 0.0, 0.0, 0.0, 0.0, 0.0, 0.0, 0.0, 0.0, 0.0, 0.0, 0.0, 0.0, 0.0, 0.0, 0.0, 0.0, 0.0, 0.0, 0.0, 0.0, 0.0, 0.0, 0.0, 0.0, 0.0, 0.0, 0.0, 0.0, 0.0, 0.0, 0.0, 0.0, 0.0, 0.0, 0.0, 0.0, 0.0, 0.0, 0.0, 0.0, 0.0, 0.0, 0.0, 0.0, 0.0, 0.0, 0.0, 0.0, 0.0, 0.0, 0.0, 0.0, 0.0, 0.0, 0.0, 0.0, 0.0, 0.0, 0.0, 0.0, 0.0, 0.0, 0.0, 0.0, 0.0, 0.0, 0.0, 0.0, 0.0, 0.0, 0.0, 0.0, 0.0, 0.0, 0.0, 0.0, 0.0, 0.0, 0.0, 0.0, 0.0, 0.0, 0.0, 0.0, 0.0, 0.0, 0.0, 0.0, 0.0, 0.0, 0.0, 0.0, 0.0, 0.0, 0.0, 0.0, 0.0, 0.0, 0.0, 0.0, 0.0, 0.0, 0.0, 0.0, 0.0, 0.0, 0.0, 0.0, 0.0, 0.0, 0.0, 0.0, 0.0, 0.0, 0.0, 0.0, 0.0, 0.0, 0.0, 0.0, 0.0, 0.0, 0.0, 0.0, 0.0, 0.0, 0.0, 0.0, 0.0, 0.0, 0.0, 0.0, 0.0, 0.0, 0.0, 0.0, 0.0, 0.0, 0.0, 0.0, 0.0, 0.0, 0.0, 0.0, 0.0, 0.0, 0.0, 0.0, 0.0, 0.0, 0.0, 0.0, 0.0, 0.0, 0.0, 0.0, 0.0, 0.0, 0.0, 0.0, 0.0, 0.0, 0.0, 0.0, 0.0, 0.0, 0.0, 0.0, 0.0, 0.0, 0.0, 0.0, 0.0, 0.0, 0.0, 0.0, 0.0, 0.0, 0.0, 0.0, 0.0, 0.0, 0.0, 0.0, 0.0, 0.0, 0.0, 0.0, 0.0, 0.0, 0.0, 0.0, 0.0, 0.0, 0.0, 0.0, 0.0, 0.0, 0.0, 0.0, 0.0, 0.0, 0.0, 0.0, 0.0, 0.0, 0.0, 0.0, 0.0, 0.0, 0.0, 0.0, 0.0, 0.0, 0.0, 0.0, 0.0, 0.0, 0.0, 0.0, 0.0, 0.0, 0.0, 0.0, 0.0, 0.0, 0.0, 0.0, 0.0, 0.0, 0.0, 0.0, 0.0, 0.0, 0.0, 0.0, 0.0, 0.0, 0.0, 0.0, 0.0, 0.0, 0.0, 0.0, 0.0, 0.0, 0.0, 0.0, 0.0, 0.0, 0.0, 0.0, 0.0, 0.0, 0.0, 0.0, 0.0, 0.0, 0.0, 0.0, 0.0, 0.0, 0.0, 0.0, 0.0, 0.0, 0.0, 0.0, 0.0, 0.0, 0.0, 0.0, 0.0, 0.0, 0.0, 0.0, 0.0, 0.0, 0.0, 0.0, 0.0, 0.0, 0.0, 0.0, 0.0, 0.0, 0.0, 0.0, 0.0, 0.0, 0.0, 0.0, 0.0, 0.0, 0.0, 0.0, 0.0, 0.0, 0.0, 0.0, 0.0, 0.0, 0.0, 0.0, 0.0, 0.0, 0.0, 0.0, 0.0, 0.0, 0.0, 0.0, 0.0, 0.0, 0.0, 0.0, 0.0, 0.0, 0.0, 0.0, 0.0, 0.0, 0.0, 0.0, 0.0, 0.0, 0.0, 0.0, 0.0, 0.0, 0.0, 0.0, 0.0, 0.0, 0.0, 0.0, 0.0, 0.0, 0.0, 0.0, 0.0, 0.0, 0.0, 0.0, 0.0, 0.0, 0.0, 0.0, 0.0, 0.0, 0.0, 0.0, 0.0, 0.0, 0.0, 0.0, 0.0, 0.0, 0.0, 0.0, 0.0, 0.0, 0.0, 0.0, 0.0, 0.0, 0.0, 0.0, 0.0, 0.0, 0.0, 0.0, 0.0, 0.0, 0.0, 0.0, 0.0, 0.0, 0.0, 0.0, 0.0, 0.0, 0.0, 0.0, 0.0, 0.0, 0.0, 0.0, 0.0, 0.0, 0.0, 0.0, 0.0, 0.0, 0.0, 0.0, 0.0, 0.0, 0.0, 0.0, 0.0, 0.0, 0.0, 0.0, 0.0, 0.0, 0.0, 0.0, 0.0, 0.0, 0.0, 0.0, 0.0, 0.0, 0.0, 0.0, 0.0, 0.0, 0.0, 0.0, 0.0, 0.0, 0.0, 0.0, 0.0, 0.0, 0.0, 0.0, 0.0, 0.0, 0.0, 0.0, 0.0, 0.0, 0.0, 0.0, 0.0, 0.0, 0.0, 0.0, 0.0, 0.0, 0.0, 0.0, 0.0, 0.0, 0.0, 0.0, 0.0, 0.0, 0.0, 0.0, 0.0, 0.0, 0.0, 0.0, 0.0, 0.0, 0.0, 0.0, 0.0, 0.0, 0.0, 0.0, 0.0, 0.0, 0.0, 0.0, 0.0, 0.0, 0.0, 0.0, 0.0, 0.0, 0.0, 0.0, 0.0, 0.0, 0.0, 0.0, 0.0, 0.0, 0.0, 0.0, 0.0, 0.0, 0.0, 0.0, 0.0, 0.0, 0.0, 0.0, 0.0, 0.0, 0.0, 0.0, 0.0, 0.0, 0.0, 0.0, 0.0, 0.0, 0.0, 0.0, 0.0, 0.0, 0.0, 0.0, 0.0, 0.0, 0.0, 0.0, 0.0, 0.0, 0.0, 0.0, 0.0, 0.0, 0.0, 0.0, 0.0, 0.0, 0.0, 0.0, 0.0, 0.0, 0.0, 0.0, 0.0, 0.0, 0.0, 0.0, 0.0, 0.0, 0.0, 0.0, 0.0, 0.0, 0.0, 0.0, 0.0, 0.0, 0.0, 0.0, 0.0, 0.0, 0.0, 0.0, 0.0, 0.0, 0.0, 0.0, 0.0, 0.0, 0.0, 0.0, 0.0, 0.0, 0.0, 0.0, 0.0, 0.0, 0.0, 0.0, 0.0, 0.0, 0.0, 0.0, 0.0, 0.0, 0.0, 0.0, 0.0, 0.0, 0.0, 0.0, 0.0, 0.0, 0.0, 0.0, 0.0, 0.0, 0.0, 0.0, 0.0, 0.0, 0.0, 0.0, 0.0, 0.0, 0.0, 0.0, 0.0, 0.0, 0.0, 0.0, 0.0, 0.0, 0.0, 0.0, 0.0, 0.0, 0.0, 0.0, 0.0, 0.0, 0.0, 0.0, 0.0, 0.0, 0.0, 0.0, 0.0, 0.0, 0.0, 0.0, 0.0, 0.0, 0.0, 0.0, 0.0, 0.0, 0.0, 0.0, 0.0, 0.0, 0.0, 0.0, 0.0, 0.0, 0.0, 0.0, 0.0, 0.0, 0.0, 0.0, 0.0, 0.0, 0.0, 0.0, 0.0, 0.0, 0.0, 0.0, 0.0, 0.0, 0.0, 0.0, 0.0, 0.0, 0.0, 0.0, 0.0, 0.0, 0.0, 0.0, 0.0, 0.0, 0.0, 0.0, 0.0, 0.0, 0.0, 0.0, 0.0, 0.0, 0.0, 0.0, 0.0, 0.0, 0.0, 0.0, 0.0, 0.0, 0.0, 0.0, 0.0, 0.0, 0.0, 0.0, 0.0, 0.0, 0.0, 0.0, 0.0, 0.0, 0.0, 0.0, 0.0, 0.0, 0.0, 0.0, 0.0, 0.0, 0.0, 0.0, 0.0, 0.0, 0.0, 0.0, 0.0, 0.0, 0.0, 0.0, 0.0, 0.0, 0.0, 0.0, 0.0, 0.0, 0.0, 0.0, 0.0, 0.0, 0.0, 0.0, 0.0, 0.0, 0.0, 0.0, 0.0, 0.0, 0.0, 0.0, 0.0, 0.0, 0.0, 0.0, 0.0, 0.0, 0.0, 0.0, 0.0, 0.0, 0.0, 0.0, 0.0, 0.0, 0.0, 0.0, 0.0, 0.0, 0.0, 0.0, 0.0, 0.0, 0.0, 0.0, 0.0, 0.0, 0.0, 0.0, 0.0, 0.0, 0.0, 0.0, 0.0, 0.0, 0.0, 0.0, 0.0, 0.0, 0.0, 0.0, 0.0, 0.0, 0.0, 0.0, 0.0, 0.0, 0.0, 0.0, 0.0, 0.0, 0.0, 0.0, 0.0, 0.0, 0.0, 0.0, 0.0, 0.0, 0.0, 0.0, 0.0, 0.0, 0.0, 0.0, 0.0, 0.0, 0.0, 0.0, 0.0, 0.0, 0.0, 0.0, 0.0, 0.0, 0.0, 0.0, 0.0, 0.0, 0.0, 0.0, 0.0, 0.0, 0.0, 0.0, 0.0, 0.0, 0.0, 0.0, 0.0, 0.0, 0.0, 0.0, 0.0, 0.0, 0.0, 0.0, 0.0, 0.0, 0.0, 0.0, 0.0, 0.0, 0.0, 0.0, 0.0, 0.0, 0.0, 0.0, 0.0, 0.0, 0.0, 0.0, 0.0, 0.0, 0.0, 0.0, 0.0, 0.0, 0.0, 0.0, 0.0, 0.0, 0.0, 0.0, 0.0, 0.0, 0.0, 0.0, 0.0, 0.0, 0.0, 0.0, 0.0, 0.0, 0.0, 0.0, 0.0, 0.0, 0.0, 0.0, 0.0, 0.0, 0.0, 0.0, 0.0, 0.0, 0.0, 0.0, 0.0, 0.0, 0.0, 0.0, 0.0, 0.0, 0.0, 0.0, 0.0, 0.0, 0.0, 0.0, 0.0, 0.0, 0.0, 0.0, 0.0, 0.0, 0.0, 0.0, 0.0, 0.0, 0.0, 0.0, 0.0, 0.0, 0.0, 0.0, 0.0, 0.0, 0.0, 0.0, 0.0, 0.0, 0.0, 0.0, 0.0, 0.0, 0.0, 0.0, 0.0, 0.0, 0.0, 0.0, 0.0, 0.0, 0.0, 0.0, 0.0, 0.0, 0.0, 0.0, 0.0, 0.0, 0.0, 0.0, 0.0, 0.0, 0.0, 0.0, 0.0, 0.0, 0.0, 0.0, 0.0, 0.0, 0.0, 0.0, 0.0, 0.0, 0.0, 0.0, 0.0, 0.0, 0.0, 0.0, 0.0, 0.0, 0.0, 0.0, 0.0, 0.0, 0.0, 0.0, 0.0, 0.0, 0.0, 0.0, 0.0, 0.0, 0.0, 0.0, 0.0, 0.0, 0.0, 0.0, 0.0, 0.0, 0.0, 0.0, 0.0, 0.0, 0.0, 0.0, 0.0, 0.0, 0.0, 0.0, 0.0, 0.0, 0.0, 0.0, 0.0, 0.0, 0.0, 0.0, 0.0, 0.0, 0.0, 0.0, 0.0, 0.0, 0.0, 0.0, 0.0, 0.0, 0.0, 0.0, 0.0, 0.0, 0.0, 0.0, 0.0, 0.0, 0.0, 0.0, 0.0, 0.0, 0.0, 0.0, 0.0, 0.0, 0.0, 0.0, 0.0, 0.0, 0.0, 0.0, 0.0, 0.0, 0.0, 0.0, 0.0, 0.0, 0.0, 0.0, 0.0, 0.0, 0.0, 0.0, 0.0, 0.0, 0.0, 0.0, 0.0, 0.0, 0.0, 0.0, 0.0, 0.0, 0.0, 0.0, 0.0, 0.0, 0.0, 0.0, 0.0, 0.0, 0.0, 0.0, 0.0, 0.0, 0.0, 0.0, 0.0, 0.0, 0.0, 0.0, 0.0, 0.0, 0.0, 0.0, 0.0, 0.0, 0.0, 0.0, 0.0, 0.0, 0.0, 0.0, 0.0, 0.0, 0.0, 0.0, 0.0, 0.0, 0.0, 0.0, 0.0, 0.0, 0.0, 0.0, 0.0, 0.0, 0.0, 0.0, 0.0, 0.0, 0.0, 0.0, 0.0, 0.0, 0.0, 0.0, 0.0, 0.0, 0.0, 0.0, 0.0, 0.0, 0.0, 0.0, 0.0, 0.0, 0.0, 0.0, 0.0, 0.0, 0.0, 0.0, 0.0, 0.0, 0.0, 0.0, 0.0, 0.0, 0.0, 0.0, 0.0, 0.0, 0.0, 0.0, 0.0, 0.0, 0.0, 0.0, 0.0, 0.0, 0.0, 0.0, 0.0, 0.0, 0.0, 0.0, 0.0, 0.0, 0.0, 0.0, 0.0, 0.0, 0.0, 0.0, 0.0, 0.0, 0.0, 0.0, 0.0, 0.0, 0.0, 0.0, 0.0, 0.0, 0.0, 0.0, 0.0, 0.0, 0.0, 0.0, 0.0, 0.0, 0.0, 0.0, 0.0, 0.0, 0.0, 0.0, 0.0, 0.0, 0.0, 0.0, 0.0, 0.0, 0.0, 0.0, 0.0, 0.0, 0.0, 0.0, 0.0, 0.0, 0.0, 0.0, 0.0, 0.0, 0.0, 0.0, 0.0, 0.0, 0.0, 0.0, 0.0, 0.0, 0.0, 0.0, 0.0, 0.0, 0.0, 0.0, 0.0, 0.0, 0.0, 0.0, 0.0, 0.0, 0.0, 0.0, 0.0, 0.0, 0.0, 0.0, 0.0, 0.0, 0.0, 0.0, 0.0, 0.0, 0.0, 0.0, 0.0, 0.0, 0.0, 0.0, 0.0, 0.0, 0.0, 0.0, 0.0, 0.0, 0.0, 0.0, 0.0, 0.0, 0.0, 0.0, 0.0, 0.0, 0.0, 0.0, 0.0, 0.0, 0.0, 0.0, 0.0, 0.0, 0.0, 0.0, 0.0, 0.0, 0.0, 0.0, 0.0, 0.0, 0.0, 0.0, 0.0, 0.0, 0.0, 0.0, 0.0, 0.0, 0.0, 0.0, 0.0, 0.0, 0.0, 0.0, 0.0, 0.0, 0.0, 0.0, 0.0, 0.0, 0.0, 0.0, 0.0, 0.0, 0.0, 0.0, 0.0, 0.0, 0.0, 0.0, 0.0, 0.0, 0.0, 0.0, 0.0, 0.0, 0.0, 0.0, 0.0, 0.0, 0.0, 0.0, 0.0, 0.0, 0.0, 0.0, 0.0, 0.0, 0.0, 0.0, 0.0, 0.0, 0.0, 0.0, 0.0, 0.0, 0.0, 0.0, 0.0, 0.0, 0.0, 0.0, 0.0, 0.0, 0.0, 0.0, 0.0, 0.0, 0.0, 0.0, 0.0, 0.0, 0.0, 0.0, 0.0, 0.0, 0.0, 0.0, 0.0, 0.0, 0.0, 0.0, 0.0, 0.0, 0.0, 0.0, 0.0, 0.0, 0.0, 0.0, 0.0, 0.0, 0.0, 0.0, 0.0, 0.0, 0.0, 0.0, 0.0, 0.0, 0.0, 0.0, 0.0, 0.0, 0.0, 0.0, 0.0, 0.0, 0.0, 0.0, 0.0, 0.0, 0.0, 0.0, 0.0, 0.0, 0.0, 0.0, 0.0, 0.0, 0.0, 0.0, 0.0, 0.0, 0.0, 0.0, 0.0, 0.0, 0.0, 0.0, 0.0, 0.0, 0.0, 0.0, 0.0, 0.0, 0.0, 0.0, 0.0, 0.0, 0.0, 0.0, 0.0, 0.0, 0.0, 0.0, 0.0, 0.0, 0.0, 0.0, 0.0, 0.0, 0.0, 0.0, 0.0, 0.0, 0.0, 0.0, 0.0, 0.0, 0.0, 0.0, 0.0, 0.0, 0.0, 0.0, 0.0, 0.0, 0.0, 0.0, 0.0, 0.0, 0.0, 0.0, 0.0, 0.0, 0.0, 0.0, 0.0, 0.0, 0.0, 0.0, 0.0, 0.0, 0.0, 0.0, 0.0, 0.0, 0.0, 0.0, 0.0, 0.0, 0.0, 0.0, 0.0, 0.0, 0.0, 0.0, 0.0, 0.0, 0.0, 0.0, 0.0, 0.0, 0.0, 0.0, 0.0, 0.0, 0.0, 0.0, 0.0, 0.0, 0.0, 0.0, 0.0, 0.0, 0.0, 0.0, 0.0, 0.0, 0.0, 0.0, 0.0, 0.0, 0.0, 0.0, 0.0, 0.0, 0.0, 0.0, 0.0, 0.0, 0.0, 0.0, 0.0, 0.0, 0.0, 0.0, 0.0, 0.0, 0.0, 0.0, 0.0, 0.0, 0.0, 0.0, 0.0, 0.0, 0.0, 0.0, 0.0, 0.0, 0.0, 0.0, 0.0, 0.0, 0.0, 0.0, 0.0, 0.0, 0.0, 0.0, 0.0, 0.0, 0.0, 0.0, 0.0, 0.0, 0.0, 0.0, 0.0, 0.0, 0.0, 0.0, 0.0, 0.0, 0.0, 0.0, 0.0, 0.0, 0.0, 0.0, 0.0, 0.0, 0.0, 0.0, 0.0, 0.0, 0.0, 0.0, 0.0, 0.0, 0.0, 0.0, 0.0]}